400
400 400
1 320 92
2 320 645
3 319 361
4 319 739
5 318 413
6 317 224
7 317 706
8 314 290
9 314 778
10 313 759
11 313 984
12 312 199
13 312 584
14 312 465
15 312 861
16 311 629
17 310 332
18 309 303
19 309 667
20 308 796
21 307 414
22 306 258
23 306 194
24 306 803
25 306 676
26 305 7
27 304 745
28 304 430
29 304 297
30 304 372
31 304 893
32 303 691
33 303 98
34 302 457
35 301 860
36 301 596
37 300 156
38 299 542
39 299 123
40 299 578
41 298 216
42 297 184
43 296 424
44 296 384
45 296 863
46 295 205
47 294 161
48 294 15
49 292 150
50 292 622
51 291 732
52 290 368
53 290 769
54 289 764
55 289 446
56 288 209
57 288 51
58 288 362
59 287 177
60 287 564
61 285 55
62 284 580
63 284 458
64 284 742
65 283 698
66 283 314
67 283 0
68 281 31
69 280 321
70 280 462
71 279 848
72 277 149
73 277 4
74 276 988
75 276 482
76 275 883
77 275 521
78 275 89
79 274 28
80 274 555
81 273 659
82 273 651
83 272 761
84 272 791
85 271 624
86 269 587
87 268 575
88 268 457
89 265 23
90 265 77
91 264 910
92 263 222
93 263 54
94 263 103
95 261 775
96 261 815
97 261 88
98 260 431
99 259 600
100 259 475
101 258 239
102 257 491
103 257 366
104 257 437
105 256 939
106 256 44
107 256 727
108 255 785
109 254 994
110 254 864
111 254 47
112 254 937
113 254 201
114 253 717
115 253 274
116 253 31
117 252 631
118 251 779
119 251 639
120 250 501
121 250 808
122 250 125
123 250 134
124 249 170
125 248 872
126 248 572
127 248 45
128 247 883
129 245 687
130 244 930
131 244 684
132 244 167
133 243 799
134 243 664
135 242 453
136 240 216
137 240 547
138 239 627
139 239 593
140 237 2
141 237 700
142 237 238
143 236 245
144 235 165
145 234 636
146 233 469
147 232 856
148 232 21
149 231 989
150 229 529
151 228 876
152 228 971
153 227 207
154 227 3
155 227 665
156 227 730
157 226 251
158 226 297
159 226 609
160 226 654
161 225 737
162 225 72
163 225 164
164 224 116
165 224 285
166 224 303
167 224 47
168 223 616
169 223 40
170 222 374
171 222 144
172 222 646
173 221 720
174 221 537
175 220 844
176 220 82
177 219 861
178 219 983
179 219 677
180 217 636
181 216 589
182 216 675
183 215 265
184 215 574
185 214 875
186 214 326
187 212 40
188 212 760
189 211 178
190 211 493
191 210 427
192 208 889
193 207 517
194 206 686
195 205 323
196 204 794
197 204 530
198 204 916
199 202 929
200 202 282
201 200 758
202 200 685
203 200 839
204 199 250
205 198 337
206 198 329
207 198 20
208 198 197
209 197 912
210 197 489
211 197 212
212 196 228
213 196 617
214 195 233
215 195 780
216 195 886
217 194 888
218 192 871
219 192 29
220 191 729
221 191 455
222 190 670
223 190 43
224 190 705
225 189 69
226 189 36
227 189 853
228 188 32
229 186 69
230 185 523
231 183 638
232 182 374
233 181 30
234 181 532
235 181 361
236 180 752
237 180 883
238 179 451
239 179 695
240 179 939
241 179 80
242 177 452
243 177 746
244 176 382
245 176 545
246 175 250
247 175 355
248 174 639
249 174 948
250 172 383
251 171 348
252 171 831
253 171 656
254 170 83
255 170 593
256 169 567
257 169 691
258 169 137
259 168 119
260 168 40
261 168 517
262 168 716
263 167 418
264 167 433
265 167 761
266 166 921
267 161 147
268 161 565
269 161 184
270 160 342
271 159 110
272 159 28
273 158 751
274 157 166
275 157 620
276 156 340
277 156 946
278 156 560
279 155 162
280 155 777
281 153 834
282 153 297
283 152 37
284 152 638
285 152 815
286 152 196
287 151 383
288 150 368
289 150 957
290 149 698
291 148 612
292 148 767
293 147 792
294 146 541
295 145 524
296 144 712
297 144 384
298 143 807
299 142 945
300 142 410
301 142 816
302 142 912
303 141 989
304 141 323
305 141 576
306 141 127
307 140 268
308 140 182
309 139 847
310 138 239
311 137 31
312 137 997
313 137 265
314 136 284
315 136 716
316 135 888
317 134 893
318 133 323
319 132 293
320 132 408
321 130 629
322 129 727
323 128 748
324 127 826
325 127 957
326 125 708
327 125 508
328 124 810
329 122 807
330 121 759
331 120 207
332 120 781
333 116 873
334 116 393
335 115 999
336 115 498
337 115 188
338 113 791
339 112 460
340 112 128
341 112 90
342 112 891
343 112 608
344 111 681
345 111 196
346 111 230
347 110 355
348 109 723
349 109 858
350 108 891
351 108 868
352 108 403
353 108 938
354 107 218
355 106 372
356 106 629
357 105 880
358 104 612
359 103 709
360 103 253
361 103 571
362 102 583
363 102 853
364 102 556
365 101 97
366 101 538
367 100 96
368 100 429
369 100 780
370 99 490
371 99 637
372 98 364
373 98 819
374 98 121
375 97 311
376 97 304
377 97 807
378 96 805
379 95 120
380 95 38
381 95 207
382 94 151
383 93 462
384 93 793
385 92 713
386 92 316
387 91 890
388 89 809
389 88 425
390 88 679
391 87 226
392 86 874
393 86 300
394 85 4
395 84 565
396 84 876
397 83 118
398 82 141
399 81 252
400 80 257
